[[38,70,73,225,229,250,253,376,394,398,566,632,633,670,671,684,848,851,857,920],[1,68,75,89,272,273,276,296,399,409,424,457,691,704,709,711,926,941,958,959],[2,82,113,137,153,156,310,317,324,459,466,473,480,730,735,753,964,991,994,999],[55,64,65,201,214,215,366,371,375,550,572,579,594,607,756,764,795,828,832,835],[24,29,39,47,161,166,174,192,198,200,338,342,344,346,348,363,532,586,786,802]]